960388
2 15 71701
15 18 62439
18 39 13572
39 26 17540
26 17 12605
17 6 20722
6 12 23210
12 27 6411
27 21 41178
21 3 23621
3 23 52566
23 19 65656
19 31 24201
31 4 3289
4 11 38538
11 32 3966
32 25 15457
25 36 14545
36 29 941
29 38 6375
38 30 9086
30 24 7859
24 33 30137
33 22 31608
22 37 7448
37 28 744
28 35 16894
35 5 22446
5 8 47657
8 7 54348
7 10 17580
10 0 8731
0 20 6578
20 9 5744
9 1 10593
1 34 10541
34 14 35937
14 16 45489
16 13 42390
13 2 30026
